50 2111
440 88 528 528 505 176 1010 101 1010 606 440 792 704 101 909 505 792 202 88 606 88 88 202 264 101 808 606 880 101 202 88 88 404 880 1010 808 101 707 404 101 202 404 1010 616 440 352 1010 528 303 505 
710 142 852 852 560 284 1120 112 1120 672 710 1278 1136 112 1008 560 1278 224 142 672 142 142 224 426 112 896 672 1420 112 224 142 142 448 1420 1120 896 112 784 448 112 224 448 1120 994 710 568 1120 852 336 560 
